17	4	3
28	25	34	42	24	39	45	
0	0	0	0	0	10	5	9	3	10	10	3	2	3	4
8	0	9	7	7	1	5	9	2	2	5	2	5	7
6	10	2	8	5	10	9	6	4	3	1	2	8	13
3	0	0	10	6	7	6	4	6	9	4	2	15	17
7	2	0	9	8	7	8	3	4	9	3	2	6	11
25	0	5	10	9	3	8	8	1	1	8	2	10	17
100	0	7	4	6	10	2	2	9	3	3	3	9	12	16
150	3	7	0	0	3	3	1	9	6	4	1	17
75	10	1	7	3	9	3	9	3	8	7	1	17
100	1	4	0	9	7	4	5	10	8	4	1	17
100	0	0	8	0	3	10	2	10	1	2	1	17
225	0	0	9	6	7	1	3	8	9	6	2	14	17
10	0	0	3	1	1	2	8	2	10	4	2	16	17
7	1	8	0	0	6	9	6	5	2	3	1	17
9	2	0	9	3	2	9	7	7	8	5	1	17
7	3	0	6	9	10	10	5	1	10	5	1	17
0	0	0	0	0	2	7	5	5	4	4	0
